c Generated map
c Size: 13 * 13, weights in range: 1 to 10, walls: True, with ratio 0.1
c dim 4 of 4
c
p sp 169 256
c graph contains 169 nodes and 256 arcs
c
a 1 14 5
a 14 1 5
a 1 2 7
a 2 1 7
a 2 15 3
a 15 2 3
a 4 17 5
a 17 4 5
a 4 5 4
a 5 4 4
a 5 18 9
a 18 5 9
a 5 6 9
a 6 5 9
a 6 19 5
a 19 6 5
a 8 21 5
a 21 8 5
a 8 9 5
a 9 8 5
a 9 10 10
a 10 9 10
a 10 23 8
a 23 10 8
a 10 11 6
a 11 10 6
a 11 24 2
a 24 11 2
a 11 12 9
a 12 11 9
a 12 25 2
a 25 12 2
a 14 27 2
a 27 14 2
a 14 15 8
a 15 14 8
a 15 16 9
a 16 15 9
a 16 29 5
a 29 16 5
a 16 17 1
a 17 16 1
a 17 30 10
a 30 17 10
a 17 18 6
a 18 17 6
a 18 31 10
a 31 18 10
a 18 19 7
a 19 18 7
a 19 32 8
a 32 19 8
a 19 20 5
a 20 19 5
a 20 33 3
a 33 20 3
a 20 21 9
a 21 20 9
a 21 34 8
a 34 21 8
a 23 24 8
a 24 23 8
a 24 37 9
a 37 24 9
a 24 25 7
a 25 24 7
a 25 38 5
a 38 25 5
a 25 26 3
a 26 25 3
a 26 39 8
a 39 26 8
a 27 40 10
a 40 27 10
a 29 42 7
a 42 29 7
a 29 30 5
a 30 29 5
a 30 43 2
a 43 30 2
a 30 31 9
a 31 30 9
a 31 44 9
a 44 31 9
a 31 32 9
a 32 31 9
a 32 45 4
a 45 32 4
a 32 33 2
a 33 32 2
a 33 46 4
a 46 33 4
a 33 34 9
a 34 33 9
a 34 47 7
a 47 34 7
a 34 35 6
a 35 34 6
a 35 48 7
a 48 35 7
a 37 50 6
a 50 37 6
a 37 38 2
a 38 37 2
a 38 39 10
a 39 38 10
a 39 52 1
a 52 39 1
a 40 53 1
a 53 40 1
a 40 41 5
a 41 40 5
a 41 54 5
a 54 41 5
a 41 42 2
a 42 41 2
a 42 55 10
a 55 42 10
a 42 43 4
a 43 42 4
a 43 56 7
a 56 43 7
a 43 44 4
a 44 43 4
a 44 57 3
a 57 44 3
a 44 45 6
a 45 44 6
a 45 46 8
a 46 45 8
a 46 59 8
a 59 46 8
a 46 47 6
a 47 46 6
a 47 60 10
a 60 47 10
a 47 48 10
a 48 47 10
a 48 61 3
a 61 48 3
a 48 49 5
a 49 48 5
a 49 62 6
a 62 49 6
a 49 50 7
a 50 49 7
a 50 63 4
a 63 50 4
a 52 65 4
a 65 52 4
a 53 66 2
a 66 53 2
a 53 54 6
a 54 53 6
a 54 67 7
a 67 54 7
a 54 55 6
a 55 54 6
a 55 68 4
a 68 55 4
a 55 56 7
a 56 55 7
a 56 69 3
a 69 56 3
a 56 57 5
a 57 56 5
a 57 70 9
a 70 57 9
a 59 72 10
a 72 59 10
a 59 60 1
a 60 59 1
a 60 73 4
a 73 60 4
a 60 61 4
a 61 60 4
a 61 74 3
a 74 61 3
a 61 62 6
a 62 61 6
a 62 75 10
a 75 62 10
a 62 63 2
a 63 62 2
a 63 76 8
a 76 63 8
a 63 64 7
a 64 63 7
a 64 77 9
a 77 64 9
a 64 65 6
a 65 64 6
a 66 79 3
a 79 66 3
a 66 67 4
a 67 66 4
a 67 80 4
a 80 67 4
a 67 68 3
a 68 67 3
a 68 81 8
a 81 68 8
a 68 69 8
a 69 68 8
a 69 82 4
a 82 69 4
a 69 70 6
a 70 69 6
a 70 83 3
a 83 70 3
a 72 85 4
a 85 72 4
a 72 73 9
a 73 72 9
a 73 74 9
a 74 73 9
a 74 75 1
a 75 74 1
a 75 88 9
a 88 75 9
a 75 76 1
a 76 75 1
a 76 89 3
a 89 76 3
a 76 77 8
a 77 76 8
a 77 90 2
a 90 77 2
a 79 92 2
a 92 79 2
a 79 80 4
a 80 79 4
a 80 93 1
a 93 80 1
a 80 81 7
a 81 80 7
a 81 94 4
a 94 81 4
a 81 82 5
a 82 81 5
a 82 95 3
a 95 82 3
a 82 83 9
a 83 82 9
a 83 96 6
a 96 83 6
a 83 84 5
a 84 83 5
a 84 97 9
a 97 84 9
a 84 85 5
a 85 84 5
a 85 98 6
a 98 85 6
a 88 101 5
a 101 88 5
a 88 89 8
a 89 88 8
a 89 102 5
a 102 89 5
a 89 90 2
a 90 89 2
a 90 103 3
a 103 90 3
a 90 91 2
a 91 90 2
a 91 104 3
a 104 91 3
a 92 105 4
a 105 92 4
a 92 93 9
a 93 92 9
a 93 106 2
a 106 93 2
a 93 94 3
a 94 93 3
a 94 107 8
a 107 94 8
a 94 95 4
a 95 94 4
a 95 108 4
a 108 95 4
a 95 96 6
a 96 95 6
a 96 109 8
a 109 96 8
a 96 97 9
a 97 96 9
a 97 110 5
a 110 97 5
a 97 98 7
a 98 97 7
a 98 111 8
a 111 98 8
a 98 99 4
a 99 98 4
a 99 112 2
a 112 99 2
a 99 100 3
a 100 99 3
a 100 113 10
a 113 100 10
a 100 101 5
a 101 100 5
a 101 114 8
a 114 101 8
a 101 102 9
a 102 101 9
a 102 115 6
a 115 102 6
a 102 103 2
a 103 102 2
a 103 116 3
a 116 103 3
a 103 104 6
a 104 103 6
a 104 117 8
a 117 104 8
a 105 106 6
a 106 105 6
a 106 119 10
a 119 106 10
a 106 107 9
a 107 106 9
a 107 120 9
a 120 107 9
a 107 108 10
a 108 107 10
a 108 121 8
a 121 108 8
a 108 109 4
a 109 108 4
a 109 122 7
a 122 109 7
a 109 110 5
a 110 109 5
a 110 123 7
a 123 110 7
a 110 111 7
a 111 110 7
a 111 124 1
a 124 111 1
a 111 112 10
a 112 111 10
a 112 125 6
a 125 112 6
a 112 113 9
a 113 112 9
a 113 126 3
a 126 113 3
a 113 114 1
a 114 113 1
a 114 127 9
a 127 114 9
a 114 115 7
a 115 114 7
a 115 128 10
a 128 115 10
a 115 116 3
a 116 115 3
a 116 129 5
a 129 116 5
a 116 117 8
a 117 116 8
a 117 130 9
a 130 117 9
a 119 132 2
a 132 119 2
a 119 120 5
a 120 119 5
a 120 133 10
a 133 120 10
a 120 121 1
a 121 120 1
a 121 134 1
a 134 121 1
a 121 122 9
a 122 121 9
a 122 135 7
a 135 122 7
a 122 123 7
a 123 122 7
a 123 136 10
a 136 123 10
a 123 124 6
a 124 123 6
a 124 137 6
a 137 124 6
a 124 125 6
a 125 124 6
a 125 138 1
a 138 125 1
a 125 126 1
a 126 125 1
a 126 139 8
a 139 126 8
a 126 127 5
a 127 126 5
a 127 140 10
a 140 127 10
a 127 128 6
a 128 127 6
a 128 141 4
a 141 128 4
a 128 129 5
a 129 128 5
a 129 142 5
a 142 129 5
a 129 130 3
a 130 129 3
a 130 143 4
a 143 130 4
a 131 144 7
a 144 131 7
a 131 132 4
a 132 131 4
a 132 145 6
a 145 132 6
a 132 133 7
a 133 132 7
a 133 146 6
a 146 133 6
a 133 134 2
a 134 133 2
a 134 147 5
a 147 134 5
a 134 135 10
a 135 134 10
a 135 148 3
a 148 135 3
a 135 136 6
a 136 135 6
a 136 137 5
a 137 136 5
a 137 150 5
a 150 137 5
a 137 138 6
a 138 137 6
a 138 151 9
a 151 138 9
a 138 139 4
a 139 138 4
a 139 152 7
a 152 139 7
a 139 140 3
a 140 139 3
a 140 153 7
a 153 140 7
a 140 141 5
a 141 140 5
a 141 154 2
a 154 141 2
a 141 142 6
a 142 141 6
a 142 155 2
a 155 142 2
a 142 143 4
a 143 142 4
a 143 156 10
a 156 143 10
a 144 145 2
a 145 144 2
a 145 158 6
a 158 145 6
a 145 146 4
a 146 145 4
a 146 147 9
a 147 146 9
a 147 160 4
a 160 147 4
a 147 148 9
a 148 147 9
a 148 161 6
a 161 148 6
a 150 151 7
a 151 150 7
a 151 164 8
a 164 151 8
a 151 152 5
a 152 151 5
a 152 165 7
a 165 152 7
a 152 153 5
a 153 152 5
a 153 166 10
a 166 153 10
a 153 154 2
a 154 153 2
a 154 167 10
a 167 154 10
a 154 155 6
a 155 154 6
a 155 168 2
a 168 155 2
a 155 156 4
a 156 155 4
a 156 169 4
a 169 156 4
a 160 161 1
a 161 160 1
a 161 162 5
a 162 161 5
a 164 165 5
a 165 164 5
a 165 166 4
a 166 165 4
a 166 167 9
a 167 166 9
a 167 168 10
a 168 167 10
a 168 169 6
a 169 168 6
